multiobj/solutions/reallike/Ter-rl-7-2-0.80-1.0-2.out
3 2
3 2 6 0 4 5 1 
378738 194666 
3 4 6 0 2 5 1 
399438 192634 
3 5 6 0 2 4 1 
402754 182756 
